(set-info :smt-lib-version 2.6)
(set-logic AUFBVFPDTNIRA)
(set-info :source |
Generated by: AdaCore
Generated on: 2020-03-06
Generator: SPARK
Application: Program verification for Ada
Target solver: CVC4
|)
(set-info :license "https://creativecommons.org/licenses/by/4.0/")
(set-info :category "industrial")
(set-info :status unknown)
;;; generated by SMT-LIB2 driver
;;; SMT-LIB2 driver: bit-vectors, common part
;;; SMT-LIB2: integer arithmetic
(declare-sort string 0)

(declare-datatypes ((tuple0 0))
(((Tuple0))))
(declare-sort us_private 0)

(declare-fun private__bool_eq (us_private us_private) Bool)

(declare-const us_null_ext__ us_private)

(declare-sort us_type_of_heap 0)

(declare-datatypes ((us_type_of_heap__ref 0))
(((us_type_of_heap__refqtmk (us_type_of_heap__content us_type_of_heap)))))
(declare-sort us_image 0)

(declare-datatypes ((int__ref 0))
(((int__refqtmk (int__content Int)))))
(declare-datatypes ((bool__ref 0))
(((bool__refqtmk (bool__content Bool)))))
(declare-datatypes ((us_fixed__ref 0))
(((us_fixed__refqtmk (us_fixed__content Int)))))
(declare-datatypes ((real__ref 0))
(((real__refqtmk (real__content Real)))))
(declare-datatypes ((us_private__ref 0))
(((us_private__refqtmk (us_private__content us_private)))))
(define-fun int__ref___projection ((a int__ref)) Int (int__content a))

(define-fun us_fixed__ref___projection ((a us_fixed__ref)) Int (us_fixed__content
                                                               a))

(define-fun bool__ref___projection ((a bool__ref)) Bool (bool__content a))

(define-fun real__ref___projection ((a real__ref)) Real (real__content a))

(define-fun us_private__ref___projection ((a us_private__ref)) us_private 
  (us_private__content a))

(declare-sort integer 0)

(declare-fun integerqtint (integer) Int)

;; integer'axiom
  (assert
  (forall ((i integer))
  (and (<= (- 2147483648) (integerqtint i)) (<= (integerqtint i) 2147483647))))

(define-fun in_range ((x Int)) Bool (and (<= (- 2147483648) x)
                                    (<= x 2147483647)))

(declare-fun attr__ATTRIBUTE_IMAGE (Int) us_image)

(declare-fun attr__ATTRIBUTE_VALUE__pre_check (us_image) Bool)

(declare-fun attr__ATTRIBUTE_VALUE (us_image) Int)

(declare-fun user_eq (integer integer) Bool)

(declare-const dummy integer)

(declare-datatypes ((integer__ref 0))
(((integer__refqtmk (integer__content integer)))))
(define-fun integer__ref_integer__content__projection ((a integer__ref)) integer 
  (integer__content a))

(define-fun dynamic_invariant ((temp___expr_18 Int) (temp___is_init_14 Bool)
  (temp___skip_constant_15 Bool) (temp___do_toplevel_16 Bool)
  (temp___do_typ_inv_17 Bool)) Bool (=>
                                    (or (= temp___is_init_14 true)
                                    (<= (- 2147483648) 2147483647)) (in_range
                                    temp___expr_18)))

(declare-const intgr Int)

(declare-const attr__ATTRIBUTE_ADDRESS Int)

(declare-fun c86004c0 (Int) Int)

(declare-fun c86004c0__function_guard (Int Int) Bool)

;; c86004c0__post_axiom
  (assert
  (forall ((x Int))
  (! (=> (dynamic_invariant x true true true true)
     (let ((result (c86004c0 x)))
     (=> (c86004c0__function_guard result x) (dynamic_invariant result true
     false true true)))) :pattern ((c86004c0 x)) )))

(declare-const attr__ATTRIBUTE_ADDRESS1 Int)

(declare-const attr__ATTRIBUTE_ADDRESS2 Int)

(declare-sort int__ 0)

(declare-fun int__qtint (int__) Int)

;; int__'axiom
  (assert
  (forall ((i int__)) (and (<= 0 (int__qtint i)) (<= (int__qtint i) 10))))

(define-fun in_range1 ((x Int)) Bool (and (<= 0 x) (<= x 10)))

(declare-fun attr__ATTRIBUTE_IMAGE1 (Int) us_image)

(declare-fun attr__ATTRIBUTE_VALUE__pre_check1 (us_image) Bool)

(declare-fun attr__ATTRIBUTE_VALUE1 (us_image) Int)

(declare-fun user_eq1 (int__ int__) Bool)

(declare-const dummy1 int__)

(declare-datatypes ((int____ref 0))
(((int____refqtmk (int____content int__)))))
(define-fun int____ref_int____content__projection ((a int____ref)) int__ 
  (int____content a))

(define-fun dynamic_invariant1 ((temp___expr_159 Int)
  (temp___is_init_155 Bool) (temp___skip_constant_156 Bool)
  (temp___do_toplevel_157 Bool)
  (temp___do_typ_inv_158 Bool)) Bool (=>
                                     (or (= temp___is_init_155 true)
                                     (<= 0 10)) (in_range1 temp___expr_159)))

(assert
;; defqtvc
 ;; File "c86004c01.adb", line 3, characters 0-0
  (not
  (=> (dynamic_invariant intgr true false true true)
  (let ((o (c86004c0 10)))
  (=>
  (and (c86004c0__function_guard o 10) (dynamic_invariant o true false true
  true))
  (=> (in_range1 o)
  (forall ((a Int))
  (=> (= a o)
  (=> (dynamic_invariant1 a true false true true)
  (let ((o1 intgr))
  (let ((o2 (c86004c0 o1)))
  (=>
  (and (c86004c0__function_guard o2 o1) (dynamic_invariant o2 true false true
  true)) (in_range1 o2)))))))))))))
(check-sat)
